% demand
num_movements = 20;
loading_factor = [1400, 1900, 1650, 1400, 1400, 1450, 1550, 800, 1850, 1300, 1800, 1050, 1850, 800, 1450, 1000, 1650, 900, 1900, 850];
pickup_time = [0, 0, 0, 0, 0, 0, 0, 1, 1, 2, 3, 3, 3, 3, 4, 4, 4, 4, 4, 4];
delivery_time = [2, 2, 1, 2, 5, 1, 2, 2, 2, 3, 4, 4, 5, 4, 5, 5, 5, 5, 5, 5];

% transporter definition
total_capacity = 11000;
num_decks = 4;
capacity = [3000, 3000, 1000, 4000];

% ways out of decks
num_ways_out = 2;
paths_out = array3d(decks, ways_out, decks, [
% ways out of deck d1
2, 4, 0, 0, 3, 4, 0, 0, 

% ways out of deck d2
4, 0, 0, 0, 0, 0, 0, 0,	

% ways out of deck d3
4, 0, 0, 0, 0, 0, 0, 0,	

% ways out of deck d4
0, 0, 0, 0,	0, 0, 0, 0,	

]);

